NAME : n100w120.003.909.tour
COMMENT : Length = 909
COMMENT : Found by LKH [Keld Helsgaun] Tue Nov  7 19:45:13 2017
TYPE : TOUR
DIMENSION : 101
TOUR_SECTION
1
65
41
83
29
79
8
31
82
10
86
69
12
37
35
95
33
39
98
30
28
94
32
66
54
99
20
84
47
18
55
85
45
27
52
6
87
80
60
53
4
90
25
70
77
34
71
64
101
40
23
19
43
51
5
58
74
100
38
56
15
92
62
11
3
97
76
63
44
42
91
24
21
9
59
88
16
2
75
68
61
93
46
22
26
14
73
72
7
89
49
57
81
67
96
13
78
48
17
50
36
-1
EOF
